
******************************************************************************
This program contains Ipopt, a library for large-scale nonlinear optimization.
 Ipopt is released as open source code under the Eclipse Public License (EPL).
         For more information visit http://projects.coin-or.org/Ipopt
******************************************************************************

This is Ipopt version 3.12.6, running with linear solver ma57.

Number of nonzeros in equality constraint Jacobian...:        0
Number of nonzeros in inequality constraint Jacobian.:     6000
Number of nonzeros in Lagrangian Hessian.............:     2002

Total number of variables............................:     2002
                     variables with only lower bounds:        0
                variables with lower and upper bounds:        0
                     variables with only upper bounds:        0
Total number of equality constraints.................:        0
Total number of inequality constraints...............:     2000
        inequality constraints with only lower bounds:     2000
   inequality constraints with lower and upper bounds:        0
        inequality constraints with only upper bounds:        0

iter    objective    inf_pr   inf_du lg(mu)  ||d||  lg(rg) alpha_du alpha_pr  ls
   0  5.0587437e+02 0.00e+00 1.58e+00  -1.0 0.00e+00    -  0.00e+00 0.00e+00   0
   1  7.3323396e+01 3.58e-03 3.87e+00  -1.0 1.92e+00    -  1.00e+00 6.32e-01f  1
   2  1.8568902e+01 1.54e-03 1.47e+01  -1.0 6.83e-01    -  1.00e+00 5.71e-01h  1
   3  8.8313040e+00 6.48e-04 3.65e+01  -1.0 4.04e-01    -  1.00e+00 5.76e-01h  1
   4  7.9935124e+00 2.78e-04 8.91e+01  -1.0 2.94e-01    -  1.00e+00 5.70e-01h  1
   5  9.1543902e+00 1.17e-04 2.11e+02  -1.0 2.52e-01    -  1.00e+00 5.78e-01h  1
   6  1.1511499e+01 5.17e-05 5.48e+02  -1.0 2.42e-01    -  1.00e+00 5.60e-01h  1
   7  1.5981403e+01 2.24e-05 1.34e+03  -1.0 2.54e-01    -  1.00e+00 5.68e-01h  1
   8  2.7121209e+01 8.20e-06 2.59e+03  -1.0 2.80e-01    -  1.00e+00 6.33e-01h  1
   9  6.5017108e+01 1.36e-07 3.82e+02  -1.0 2.69e-01    -  1.00e+00 9.67e-01h  1
iter    objective    inf_pr   inf_du lg(mu)  ||d||  lg(rg) alpha_du alpha_pr  ls
  10  7.5466578e+01 0.00e+00 1.00e-06  -1.0 8.40e-02    -  1.00e+00 1.00e+00f  1
  11  3.5458504e+01 0.00e+00 4.49e+03  -5.7 7.00e-01    -  7.84e-01 1.00e+00f  1
  12  1.7518533e+01 0.00e+00 5.79e+03  -5.7 2.98e-01    -  4.68e-03 1.00e+00f  1
  13  1.3694211e+01 0.00e+00 3.95e+03  -5.7 1.14e-01    -  4.65e-01 1.00e+00f  1
  14  1.3416300e+01 0.00e+00 2.86e+03  -5.7 7.13e-02    -  2.48e-01 1.36e-01f  1
  15  1.3044904e+01 0.00e+00 2.69e+03  -5.7 7.34e-02    -  9.02e-02 1.80e-01f  1
  16  1.3021729e+01 0.00e+00 1.23e+03  -5.7 6.75e-02    -  4.13e-01 1.24e-02f  1
  17  1.2951558e+01 0.00e+00 1.17e+03  -5.7 7.90e-02    -  4.07e-02 3.12e-02f  1
  18  1.2119624e+01 0.00e+00 1.10e+03  -5.7 7.81e-02    -  2.10e-01 3.91e-01f  1
  19  1.2005134e+01 0.00e+00 7.74e+02  -5.7 6.00e-02    -  2.07e-01 7.06e-02f  1
iter    objective    inf_pr   inf_du lg(mu)  ||d||  lg(rg) alpha_du alpha_pr  ls
  20  1.1731660e+01 0.00e+00 4.29e+02  -5.7 6.04e-02    -  3.11e-01 1.69e-01f  1
  21  1.1582596e+01 0.00e+00 1.07e+02  -5.7 5.71e-02    -  3.67e-01 9.82e-02f  1
  22  1.1544450e+01 0.00e+00 1.72e+02  -5.7 5.70e-02    -  3.38e-01 2.51e-02f  1
  23  1.1311248e+01 0.00e+00 2.09e+02  -5.7 5.90e-02    -  2.61e-01 1.50e-01f  1
  24  1.1233480e+01 0.00e+00 2.97e+02  -5.7 5.31e-02    -  2.69e-01 5.64e-02f  1
  25  1.0994822e+01 0.00e+00 2.70e+02  -5.7 5.19e-02    -  2.53e-01 1.81e-01f  1
  26  1.0946543e+01 0.00e+00 3.14e+02  -5.7 4.44e-02    -  2.23e-01 4.36e-02f  1
  27  1.0847973e+01 0.00e+00 3.14e+02  -5.7 4.34e-02    -  2.05e-01 9.21e-02f  1
  28  1.0771080e+01 0.00e+00 3.22e+02  -5.7 4.03e-02    -  2.27e-01 7.85e-02f  1
  29  1.0679783e+01 0.00e+00 2.90e+02  -5.7 3.78e-02    -  1.02e-01 1.01e-01f  1
iter    objective    inf_pr   inf_du lg(mu)  ||d||  lg(rg) alpha_du alpha_pr  ls
  30  1.0582865e+01 0.00e+00 2.73e+02  -5.7 3.44e-02    -  2.25e-01 1.20e-01f  1
  31  1.0514781e+01 0.00e+00 2.48e+02  -5.7 3.08e-02    -  1.00e-01 9.54e-02f  1
  32  1.0421277e+01 0.00e+00 2.20e+02  -5.7 2.81e-02    -  2.12e-01 1.46e-01f  1
  33  1.0349927e+01 0.00e+00 1.92e+02  -5.7 2.44e-02    -  1.35e-01 1.31e-01f  1
  34  1.0283498e+01 0.00e+00 1.76e+02  -5.7 2.14e-02    -  2.41e-01 1.41e-01f  1
  35  1.0255868e+01 0.00e+00 1.73e+02  -5.7 1.87e-02    -  1.72e-01 6.80e-02f  1
  36  1.0186557e+01 0.00e+00 1.44e+02  -5.7 1.75e-02    -  2.22e-01 1.84e-01f  1
  37  1.0132189e+01 0.00e+00 1.20e+02  -5.7 1.45e-02    -  2.03e-01 1.78e-01f  1
  38  1.0063838e+01 0.00e+00 9.13e+01  -5.7 1.20e-02    -  3.56e-01 2.74e-01f  1
  39  1.0001956e+01 0.00e+00 5.75e+01  -5.7 9.37e-03    -  2.78e-01 3.43e-01f  1
iter    objective    inf_pr   inf_du lg(mu)  ||d||  lg(rg) alpha_du alpha_pr  ls
  40  9.9470300e+00 0.00e+00 3.46e+01  -5.7 6.69e-03    -  5.93e-01 4.66e-01f  1
  41  9.8984670e+00 0.00e+00 6.93e+00  -5.7 4.23e-03    -  6.86e-01 7.69e-01f  1
  42  9.8835030e+00 0.00e+00 1.86e-11  -5.7 1.44e-03    -  1.00e+00 1.00e+00f  1
  43  9.8803296e+00 0.00e+00 2.07e+00  -8.6 1.18e-03    -  3.93e-01 1.00e+00f  1
  44  9.8802205e+00 0.00e+00 9.32e-01  -8.6 4.39e-04    -  6.10e-01 9.96e-01f  1
  45  9.8801458e+00 0.00e+00 6.86e-01  -8.6 2.74e-04    -  3.07e-01 1.00e+00f  1
  46  9.8801388e+00 0.00e+00 2.63e-01  -8.6 1.66e-04    -  6.19e-01 1.00e+00f  1
  47  9.8801378e+00 0.00e+00 2.03e-02  -8.6 5.58e-05    -  9.23e-01 1.00e+00f  1
  48  9.8801376e+00 0.00e+00 8.86e-13  -8.6 1.99e-05    -  1.00e+00 1.00e+00h  1

Number of Iterations....: 48

                                   (scaled)                 (unscaled)
Objective...............:   9.8801375541653087e+00    9.8801375541653087e+00
Dual infeasibility......:   8.8645757401195624e-13    8.8645757401195624e-13
Constraint violation....:   0.0000000000000000e+00    0.0000000000000000e+00
Complementarity.........:   5.5464244994454037e-09    5.5464244994454037e-09
Overall NLP error.......:   4.4016736688814277e-10    5.5464244994454037e-09


Number of objective function evaluations             = 49
Number of objective gradient evaluations             = 49
Number of equality constraint evaluations            = 0
Number of inequality constraint evaluations          = 49
Number of equality constraint Jacobian evaluations   = 0
Number of inequality constraint Jacobian evaluations = 49
Number of Lagrangian Hessian evaluations             = 48
Total CPU secs in IPOPT (w/o function evaluations)   =      0.117
Total CPU secs in NLP function evaluations           =      0.037

EXIT: Optimal Solution Found.

************************ CUTEst statistics ************************


 Package used            :  IPOPT
 Problem                 :  LISWET11  
 # variables             =            2002
 # constraints           =            2000
 # objective functions   =        0.9900000E+02
 # objective gradients   =        0.5000000E+02
 # objective Hessians    =        0.4900000E+02
 # Hessian-vector prdct  =        0.0000000E+00
 # constraints functions =        0.1000000E+03
 # constraints gradients =        0.5100000E+02
 # constraints Hessians  =        0.4900000E+02
 Exit code               =               0
 Final f                 =   0.9880138E+01
 Set up time             =            0.04 seconds
 Solve time              =            0.35 seconds


******************************************************************

System Time =       0.1280000061 s.
